Route #1: 1 10 14 16 31 22 11 32 1 
Route #2: 1 20 21 9 34 28 13 37 2 35 1 
Route #3: 1 1 15 26 6 3 1 
Route #4: 1 19 7 8 5 27 25 1 
Route #5: 1 30 23 18 33 4 17 24 29 12 1 
Route #6: 1 36 1 

Cost 1080.72
Time 0.2239


 * Another infos *

 Iterations: 38 Time: 0.2239 sec - 0.0037 min - 0.0001 horas
0.0000 h 0.0037 min
Problem dimension: 38
